
(set-logic ALL) 

(declare-datatype MyList ((Nil) (Cons (head Real) (tail MyList)) )) 
(declare-fun l0 () MyList) 
(declare-fun l1 () MyList) 
(declare-fun l2 () MyList) 
(declare-fun l3 () MyList) 
(declare-fun i0 () Real) 
(declare-fun i1 () Real) 
(assert (is-Cons l1) )
(assert (is-Nil Nil) )
(assert (is-Nil Nil) )
(assert (and (= l2 Nil) (= l0 l1) (= l2 l0)) )
(assert (is-Cons l0) )
(assert (and (= l0 l3) (is-Cons Nil) (= l1 l1) (= l1 Nil)) )
(assert (not (= l1 Nil)) )
(assert (is-Cons l0) )
(check-sat)
